p cnf 471 1386
a 8 10 12 14 0
d 1 8 0
d 2 10 0
d 4 12 0
d 6 14 0
d 3 8 10 0
d 5 8 10 12 0
d 7 8 10 12 14 0
d 9 8 10 12 14 0
d 11 8 10 12 14 0
d 13 8 10 12 14 0
d 15 8 10 12 14 0
d 16 8 0
d 17 8 10 0
d 18 8 10 12 0
d 19 8 10 12 14 0
d 20 8 10 12 14 0
d 21 8 10 12 14 0
d 22 8 10 12 14 0
d 23 8 10 12 14 0
d 24 8 10 12 14 0
d 25 10 0
d 26 8 10 0
d 27 8 10 12 0
d 28 8 10 12 14 0
d 29 8 10 12 14 0
d 30 8 10 12 14 0
d 31 8 10 12 14 0
d 32 8 10 12 14 0
d 33 8 10 12 14 0
d 34 8 10 0
d 35 8 10 12 0
d 36 8 10 12 14 0
d 37 8 10 12 14 0
d 38 8 10 12 14 0
d 39 8 10 12 14 0
d 40 8 10 12 14 0
d 41 8 10 12 14 0
d 42 12 0
d 43 8 10 12 0
d 44 8 10 12 14 0
d 45 8 10 12 14 0
d 46 8 10 12 14 0
d 47 8 10 12 14 0
d 48 8 10 12 14 0
d 49 8 10 12 14 0
d 50 8 10 12 0
d 51 8 10 12 14 0
d 52 8 10 12 14 0
d 53 8 10 12 14 0
d 54 8 10 12 14 0
d 55 8 10 12 14 0
d 56 8 10 12 14 0
d 57 14 0
d 58 8 10 12 14 0
d 59 8 10 12 14 0
d 60 8 10 12 14 0
d 61 8 10 12 14 0
d 62 8 10 12 14 0
d 63 8 10 12 14 0
d 64 8 10 12 0
d 65 8 10 12 14 0
d 66 8 10 12 14 0
d 67 8 10 12 14 0
d 68 8 10 12 14 0
d 69 8 10 12 14 0
d 70 8 10 12 14 0
d 71 8 0
d 72 8 10 12 14 0
d 73 8 10 12 14 0
d 74 8 10 12 14 0
d 75 8 10 12 14 0
d 76 8 10 12 14 0
d 77 8 10 12 14 0
d 78 8 10 12 14 0
d 79 8 10 12 14 0
d 80 8 10 12 14 0
d 81 8 10 12 14 0
d 82 8 10 12 14 0
d 83 8 10 12 14 0
d 84 8 10 12 14 0
d 85 8 10 12 14 0
d 86 8 10 12 14 0
d 87 8 10 12 14 0
d 88 8 10 12 14 0
d 89 8 10 12 14 0
d 90 8 10 12 14 0
d 91 8 10 12 14 0
d 92 8 10 12 14 0
d 93 8 10 12 14 0
d 94 8 10 12 14 0
d 95 8 10 12 14 0
d 96 8 10 12 14 0
d 97 8 10 12 14 0
d 98 8 10 12 14 0
d 99 8 10 12 14 0
d 100 8 10 12 14 0
d 101 8 10 12 14 0
d 102 8 10 12 14 0
d 103 8 10 12 14 0
d 104 8 10 12 14 0
d 105 8 10 12 14 0
d 106 8 10 12 14 0
d 107 8 10 12 14 0
d 108 8 10 12 14 0
d 109 8 10 12 14 0
d 110 10 0
d 111 8 10 12 14 0
d 112 8 10 12 14 0
d 113 8 10 12 14 0
d 114 8 10 12 14 0
d 115 8 10 12 14 0
d 116 8 10 12 14 0
d 117 8 10 12 14 0
d 118 8 10 12 14 0
d 119 8 10 12 0
d 120 8 10 12 14 0
d 121 8 10 12 14 0
d 122 8 10 12 14 0
d 123 8 10 12 14 0
d 124 8 10 12 14 0
d 125 8 10 12 14 0
d 126 8 10 12 14 0
d 127 8 10 12 14 0
d 128 8 10 12 14 0
d 129 8 10 12 14 0
d 130 8 10 12 14 0
d 131 8 10 12 14 0
d 132 8 10 12 14 0
d 133 8 10 12 14 0
d 134 8 10 12 14 0
d 135 8 10 12 14 0
d 136 8 10 12 14 0
d 137 8 10 12 14 0
d 138 8 10 12 14 0
d 139 8 10 12 14 0
d 140 8 10 12 14 0
d 141 8 10 12 14 0
d 142 8 10 12 14 0
d 143 8 10 12 14 0
d 144 8 10 12 14 0
d 145 8 10 12 14 0
d 146 8 10 12 14 0
d 147 8 10 12 14 0
d 148 8 10 12 14 0
d 149 8 10 12 14 0
d 150 8 10 12 14 0
d 151 8 10 12 14 0
d 152 8 10 12 14 0
d 153 8 10 12 14 0
d 154 8 10 12 14 0
d 155 8 10 12 14 0
d 156 8 10 12 14 0
d 157 8 10 12 14 0
d 158 8 10 12 14 0
d 159 8 10 12 14 0
d 160 8 10 12 14 0
d 161 8 10 12 14 0
d 162 8 10 12 14 0
d 163 8 10 12 14 0
d 164 8 10 12 14 0
d 165 8 10 12 14 0
d 166 8 10 12 14 0
d 167 8 10 12 14 0
d 168 8 10 12 14 0
d 169 8 10 12 14 0
d 170 8 10 12 14 0
d 171 8 10 12 14 0
d 172 8 10 12 14 0
d 173 8 10 12 14 0
d 174 8 10 12 14 0
d 175 8 10 12 14 0
d 176 8 10 12 14 0
d 177 12 0
d 178 8 10 12 14 0
d 179 8 10 12 14 0
d 180 8 10 12 14 0
d 181 8 10 12 14 0
d 182 8 10 12 14 0
d 183 8 10 12 14 0
d 184 8 10 12 14 0
d 185 8 10 12 14 0
d 186 8 10 12 14 0
d 187 8 10 12 14 0
d 188 8 10 12 14 0
d 189 8 10 12 14 0
d 190 8 10 12 14 0
d 191 8 10 12 14 0
d 192 8 10 12 14 0
d 193 8 10 12 14 0
d 194 8 10 12 14 0
d 195 8 10 12 14 0
d 196 8 10 12 14 0
d 197 8 10 12 14 0
d 198 8 10 12 14 0
d 199 8 10 12 14 0
d 200 8 10 12 14 0
d 201 8 10 12 14 0
d 202 8 10 12 14 0
d 203 8 10 12 14 0
d 204 8 10 12 14 0
d 205 8 10 12 14 0
d 206 8 10 12 14 0
d 207 8 10 12 14 0
d 208 8 10 12 14 0
d 209 8 10 12 14 0
d 210 8 10 12 14 0
d 211 8 10 12 14 0
d 212 8 10 12 14 0
d 213 8 10 12 14 0
d 214 8 10 12 14 0
d 215 8 10 12 14 0
d 216 8 10 12 14 0
d 217 8 10 12 14 0
d 218 8 10 12 14 0
d 219 8 10 12 14 0
d 220 8 10 12 14 0
d 221 8 10 12 14 0
d 222 8 10 12 14 0
d 223 8 10 12 14 0
d 224 8 10 12 14 0
d 225 8 10 12 14 0
d 226 8 10 12 14 0
d 227 8 10 12 14 0
d 228 8 10 12 14 0
d 229 8 10 12 14 0
d 230 8 10 12 14 0
d 231 8 10 12 14 0
d 232 8 10 12 14 0
d 233 8 10 12 14 0
d 234 8 10 12 14 0
d 235 8 10 12 14 0
d 236 8 10 12 14 0
d 237 8 10 12 14 0
d 238 8 10 12 14 0
d 239 8 10 12 14 0
d 240 8 10 12 14 0
d 241 8 10 12 14 0
d 242 8 10 12 14 0
d 243 8 10 12 14 0
d 244 8 10 12 14 0
d 245 8 10 12 14 0
d 246 8 10 12 14 0
d 247 8 10 12 14 0
d 248 8 10 12 14 0
d 249 8 10 12 14 0
d 250 8 10 12 14 0
d 251 8 10 12 14 0
d 252 8 10 12 14 0
d 253 8 10 12 14 0
d 254 8 10 12 14 0
d 255 8 10 12 14 0
d 256 8 10 12 14 0
d 257 8 10 12 14 0
d 258 8 10 12 14 0
d 259 8 10 12 14 0
d 260 8 10 12 14 0
d 261 8 10 12 14 0
d 262 8 10 12 14 0
d 263 8 10 12 14 0
d 264 8 10 12 14 0
d 265 8 10 12 14 0
d 266 8 10 12 14 0
d 267 8 10 12 14 0
d 268 8 10 12 14 0
d 269 8 10 12 14 0
d 270 8 10 12 14 0
d 271 8 10 12 14 0
d 272 8 10 12 14 0
d 273 8 10 12 14 0
d 274 8 10 12 14 0
d 275 8 10 12 14 0
d 276 8 10 12 14 0
d 277 8 10 12 14 0
d 278 8 10 12 14 0
d 279 8 10 12 14 0
d 280 8 10 12 14 0
d 281 8 10 12 14 0
d 282 8 10 12 14 0
d 283 8 10 12 14 0
d 284 8 10 12 14 0
d 285 8 10 12 14 0
d 286 8 10 12 14 0
d 287 8 10 12 14 0
d 288 8 10 12 14 0
d 289 8 10 12 14 0
d 290 8 10 12 14 0
d 291 8 10 12 14 0
d 292 8 10 12 14 0
d 293 14 0
d 294 8 10 12 14 0
d 295 8 10 12 14 0
d 296 8 10 12 14 0
d 297 8 10 12 14 0
d 298 8 10 12 14 0
d 299 8 10 12 14 0
d 300 8 10 12 14 0
d 301 8 10 12 14 0
d 302 8 10 12 14 0
d 303 8 10 12 14 0
d 304 8 10 12 14 0
d 305 8 10 12 14 0
d 306 8 10 12 14 0
d 307 8 10 12 14 0
d 308 8 10 12 14 0
d 309 8 10 12 14 0
d 310 8 10 12 14 0
d 311 8 10 12 14 0
d 312 8 10 12 14 0
d 313 8 10 12 14 0
d 314 8 10 12 14 0
d 315 8 10 12 14 0
d 316 8 10 12 14 0
d 317 8 10 12 14 0
d 318 8 10 12 14 0
d 319 8 10 12 14 0
d 320 8 10 12 14 0
d 321 8 10 12 14 0
d 322 8 10 12 14 0
d 323 8 10 12 14 0
d 324 8 10 12 14 0
d 325 8 10 12 14 0
d 326 8 10 12 14 0
d 327 8 10 12 14 0
d 328 8 10 12 14 0
d 329 8 10 12 14 0
d 330 8 10 12 14 0
d 331 8 10 12 14 0
d 332 8 10 12 14 0
d 333 8 10 12 14 0
d 334 8 10 12 14 0
d 335 8 10 12 14 0
d 336 8 10 12 14 0
d 337 8 10 12 14 0
d 338 8 10 12 14 0
d 339 8 10 12 14 0
d 340 8 10 12 14 0
d 341 8 10 12 14 0
d 342 8 10 12 14 0
d 343 8 10 12 14 0
d 344 8 10 12 14 0
d 345 8 10 12 14 0
d 346 8 10 12 14 0
d 347 8 10 12 14 0
d 348 8 10 12 14 0
d 349 8 10 12 14 0
d 350 8 10 12 14 0
d 351 8 10 12 14 0
d 352 8 10 12 14 0
d 353 8 10 12 14 0
d 354 8 10 12 14 0
d 355 8 10 12 14 0
d 356 8 10 12 14 0
d 357 8 10 12 14 0
d 358 8 10 12 14 0
d 359 8 10 12 14 0
d 360 8 10 12 14 0
d 361 8 10 12 14 0
d 362 8 10 12 14 0
d 363 8 10 12 14 0
d 364 8 10 12 14 0
d 365 8 10 12 14 0
d 366 8 10 12 14 0
d 367 8 10 12 14 0
d 368 8 10 12 14 0
d 369 8 10 12 14 0
d 370 8 10 12 14 0
d 371 8 10 12 14 0
d 372 8 10 12 14 0
d 373 8 10 12 14 0
d 374 8 10 12 14 0
d 375 8 10 12 14 0
d 376 8 10 12 14 0
d 377 8 10 12 14 0
d 378 8 10 12 14 0
d 379 8 10 12 14 0
d 380 8 10 12 14 0
d 381 8 10 12 14 0
d 382 8 10 12 14 0
d 383 8 10 12 14 0
d 384 8 10 12 14 0
d 385 8 10 12 14 0
d 386 8 10 12 14 0
d 387 8 10 12 14 0
d 388 8 10 12 14 0
d 389 8 10 12 14 0
d 390 8 10 12 14 0
d 391 8 10 12 14 0
d 392 8 10 12 14 0
d 393 8 10 12 14 0
d 394 8 10 12 14 0
d 395 8 10 12 14 0
d 396 8 10 12 14 0
d 397 8 10 12 14 0
d 398 8 10 12 14 0
d 399 8 10 12 14 0
d 400 8 10 12 14 0
d 401 8 10 12 14 0
d 402 8 10 12 14 0
d 403 8 10 12 14 0
d 404 8 10 12 14 0
d 405 8 10 12 14 0
d 406 8 10 12 14 0
d 407 8 10 12 14 0
d 408 8 10 12 14 0
d 409 8 10 12 14 0
d 410 8 10 12 14 0
d 411 8 10 12 14 0
d 412 8 10 12 14 0
d 413 8 10 12 14 0
d 414 8 10 12 14 0
d 415 8 10 12 14 0
d 416 8 10 12 14 0
d 417 8 10 12 14 0
d 418 8 10 12 14 0
d 419 8 10 12 14 0
d 420 8 10 12 14 0
d 421 8 10 12 14 0
d 422 8 10 12 14 0
d 423 8 10 12 14 0
d 424 8 10 12 14 0
d 425 8 10 12 14 0
d 426 8 10 12 14 0
d 427 8 10 12 14 0
d 428 8 10 12 14 0
d 429 8 10 12 14 0
d 430 8 10 12 14 0
d 431 8 10 12 14 0
d 432 8 10 12 14 0
d 433 8 10 12 14 0
d 434 8 10 12 14 0
d 435 8 10 12 14 0
d 436 8 10 12 14 0
d 437 8 10 12 14 0
d 438 8 10 12 14 0
d 439 8 10 12 14 0
d 440 8 10 12 14 0
d 441 8 10 12 14 0
d 442 8 10 12 14 0
d 443 8 10 12 14 0
d 444 8 10 12 14 0
d 445 8 10 12 14 0
d 446 8 10 12 14 0
d 447 8 10 12 14 0
d 448 8 10 12 14 0
d 449 8 10 12 14 0
d 450 8 10 12 14 0
d 451 8 10 12 14 0
d 452 8 10 12 14 0
d 453 8 10 12 14 0
d 454 8 10 12 14 0
d 455 8 10 12 14 0
d 456 8 10 12 14 0
d 457 8 10 12 14 0
d 458 8 10 12 14 0
d 459 8 10 12 14 0
d 460 8 10 12 14 0
d 461 8 10 12 14 0
d 462 8 10 12 14 0
d 463 8 10 12 14 0
d 464 8 10 12 14 0
d 465 8 10 12 14 0
d 466 8 10 12 14 0
d 467 8 10 12 14 0
d 468 8 10 0
d 469 8 10 12 0
d 470 8 10 12 14 0
d 471 8 10 12 14 0
-3 1 0
-3 2 0
3 -1 -2 0
-5 3 0
-5 4 0
5 -3 -4 0
-7 5 0
-7 6 0
7 -5 -6 0
-9 7 0
-9 8 0
9 -7 -8 0
-11 9 0
-11 10 0
11 -9 -10 0
-13 11 0
-13 12 0
13 -11 -12 0
-15 13 0
-15 14 0
15 -13 -14 0
16 1 0
-16 -1 0
-17 16 0
-17 2 0
17 -16 -2 0
-18 17 0
-18 4 0
18 -17 -4 0
-19 18 0
-19 6 0
19 -18 -6 0
-20 19 0
-20 8 0
20 -19 -8 0
-21 20 0
-21 10 0
21 -20 -10 0
-22 21 0
-22 12 0
22 -21 -12 0
-23 22 0
-23 14 0
23 -22 -14 0
24 -15 0
24 -23 0
-24 15 23 0
25 2 0
-25 -2 0
-26 1 0
-26 25 0
26 -1 -25 0
-27 26 0
-27 4 0
27 -26 -4 0
-28 27 0
-28 6 0
28 -27 -6 0
-29 28 0
-29 8 0
29 -28 -8 0
-30 29 0
-30 10 0
30 -29 -10 0
-31 30 0
-31 12 0
31 -30 -12 0
-32 31 0
-32 14 0
32 -31 -14 0
33 -24 0
33 -32 0
-33 24 32 0
-34 16 0
-34 25 0
34 -16 -25 0
-35 34 0
-35 4 0
35 -34 -4 0
-36 35 0
-36 6 0
36 -35 -6 0
-37 36 0
-37 8 0
37 -36 -8 0
-38 37 0
-38 10 0
38 -37 -10 0
-39 38 0
-39 12 0
39 -38 -12 0
-40 39 0
-40 14 0
40 -39 -14 0
41 -33 0
41 -40 0
-41 33 40 0
42 4 0
-42 -4 0
-43 17 0
-43 42 0
43 -17 -42 0
-44 43 0
-44 6 0
44 -43 -6 0
-45 44 0
-45 8 0
45 -44 -8 0
-46 45 0
-46 10 0
46 -45 -10 0
-47 46 0
-47 12 0
47 -46 -12 0
-48 47 0
-48 14 0
48 -47 -14 0
49 -41 0
49 -48 0
-49 41 48 0
-50 34 0
-50 42 0
50 -34 -42 0
-51 50 0
-51 6 0
51 -50 -6 0
-52 51 0
-52 8 0
52 -51 -8 0
-53 52 0
-53 10 0
53 -52 -10 0
-54 53 0
-54 12 0
54 -53 -12 0
-55 54 0
-55 14 0
55 -54 -14 0
56 -49 0
56 -55 0
-56 49 55 0
57 6 0
-57 -6 0
-58 27 0
-58 57 0
58 -27 -57 0
-59 58 0
-59 8 0
59 -58 -8 0
-60 59 0
-60 10 0
60 -59 -10 0
-61 60 0
-61 12 0
61 -60 -12 0
-62 61 0
-62 14 0
62 -61 -14 0
63 -56 0
63 -62 0
-63 56 62 0
-64 26 0
-64 42 0
64 -26 -42 0
-65 64 0
-65 57 0
65 -64 -57 0
-66 65 0
-66 8 0
66 -65 -8 0
-67 66 0
-67 10 0
67 -66 -10 0
-68 67 0
-68 12 0
68 -67 -12 0
-69 68 0
-69 14 0
69 -68 -14 0
70 -63 0
70 -69 0
-70 63 69 0
71 8 0
-71 -8 0
-72 19 0
-72 71 0
72 -19 -71 0
-73 72 0
-73 10 0
73 -72 -10 0
-74 73 0
-74 12 0
74 -73 -12 0
-75 74 0
-75 14 0
75 -74 -14 0
76 -70 0
76 -75 0
-76 70 75 0
-77 36 0
-77 71 0
77 -36 -71 0
-78 77 0
-78 10 0
78 -77 -10 0
-79 78 0
-79 12 0
79 -78 -12 0
-80 79 0
-80 14 0
80 -79 -14 0
81 -76 0
81 -80 0
-81 76 80 0
-82 51 0
-82 71 0
82 -51 -71 0
-83 82 0
-83 10 0
83 -82 -10 0
-84 83 0
-84 12 0
84 -83 -12 0
-85 84 0
-85 14 0
85 -84 -14 0
86 -81 0
86 -85 0
-86 81 85 0
-87 5 0
-87 57 0
87 -5 -57 0
-88 87 0
-88 71 0
88 -87 -71 0
-89 88 0
-89 10 0
89 -88 -10 0
-90 89 0
-90 12 0
90 -89 -12 0
-91 90 0
-91 14 0
91 -90 -14 0
92 -86 0
92 -91 0
-92 86 91 0
-93 43 0
-93 57 0
93 -43 -57 0
-94 93 0
-94 71 0
94 -93 -71 0
-95 94 0
-95 10 0
95 -94 -10 0
-96 95 0
-96 12 0
96 -95 -12 0
-97 96 0
-97 14 0
97 -96 -14 0
98 -92 0
98 -97 0
-98 92 97 0
-99 65 0
-99 71 0
99 -65 -71 0
-100 99 0
-100 10 0
100 -99 -10 0
-101 100 0
-101 12 0
101 -100 -12 0
-102 101 0
-102 14 0
102 -101 -14 0
103 -98 0
103 -102 0
-103 98 102 0
-104 50 0
-104 57 0
104 -50 -57 0
-105 104 0
-105 71 0
105 -104 -71 0
-106 105 0
-106 10 0
106 -105 -10 0
-107 106 0
-107 12 0
107 -106 -12 0
-108 107 0
-108 14 0
108 -107 -14 0
109 -103 0
109 -108 0
-109 103 108 0
110 10 0
-110 -10 0
-111 29 0
-111 110 0
111 -29 -110 0
-112 111 0
-112 12 0
112 -111 -12 0
-113 112 0
-113 14 0
113 -112 -14 0
114 -109 0
114 -113 0
-114 109 113 0
-115 37 0
-115 110 0
115 -37 -110 0
-116 115 0
-116 12 0
116 -115 -12 0
-117 116 0
-117 14 0
117 -116 -14 0
118 -114 0
118 -117 0
-118 114 117 0
-119 3 0
-119 42 0
119 -3 -42 0
-120 119 0
-120 6 0
120 -119 -6 0
-121 120 0
-121 8 0
121 -120 -8 0
-122 121 0
-122 110 0
122 -121 -110 0
-123 122 0
-123 12 0
123 -122 -12 0
-124 123 0
-124 14 0
124 -123 -14 0
125 -118 0
125 -124 0
-125 118 124 0
-126 64 0
-126 6 0
126 -64 -6 0
-127 126 0
-127 8 0
127 -126 -8 0
-128 127 0
-128 110 0
128 -127 -110 0
-129 128 0
-129 12 0
129 -128 -12 0
-130 129 0
-130 14 0
130 -129 -14 0
131 -125 0
131 -130 0
-131 125 130 0
-132 87 0
-132 8 0
132 -87 -8 0
-133 132 0
-133 110 0
133 -132 -110 0
-134 133 0
-134 12 0
134 -133 -12 0
-135 134 0
-135 14 0
135 -134 -14 0
136 -131 0
136 -135 0
-136 131 135 0
-137 18 0
-137 57 0
137 -18 -57 0
-138 137 0
-138 8 0
138 -137 -8 0
-139 138 0
-139 110 0
139 -138 -110 0
-140 139 0
-140 12 0
140 -139 -12 0
-141 140 0
-141 14 0
141 -140 -14 0
142 -136 0
142 -141 0
-142 136 141 0
-143 59 0
-143 110 0
143 -59 -110 0
-144 143 0
-144 12 0
144 -143 -12 0
-145 144 0
-145 14 0
145 -144 -14 0
146 -142 0
146 -145 0
-146 142 145 0
-147 104 0
-147 8 0
147 -104 -8 0
-148 147 0
-148 110 0
148 -147 -110 0
-149 148 0
-149 12 0
149 -148 -12 0
-150 149 0
-150 14 0
150 -149 -14 0
151 -146 0
151 -150 0
-151 146 150 0
-152 72 0
-152 110 0
152 -72 -110 0
-153 152 0
-153 12 0
153 -152 -12 0
-154 153 0
-154 14 0
154 -153 -14 0
155 -151 0
155 -154 0
-155 151 154 0
-156 28 0
-156 71 0
156 -28 -71 0
-157 156 0
-157 110 0
157 -156 -110 0
-158 157 0
-158 12 0
158 -157 -12 0
-159 158 0
-159 14 0
159 -158 -14 0
160 -155 0
160 -159 0
-160 155 159 0
-161 82 0
-161 110 0
161 -82 -110 0
-162 161 0
-162 12 0
162 -161 -12 0
-163 162 0
-163 14 0
163 -162 -14 0
164 -160 0
164 -163 0
-164 160 163 0
-165 88 0
-165 110 0
165 -88 -110 0
-166 165 0
-166 12 0
166 -165 -12 0
-167 166 0
-167 14 0
167 -166 -14 0
168 -164 0
168 -167 0
-168 164 167 0
-169 99 0
-169 110 0
169 -99 -110 0
-170 169 0
-170 12 0
170 -169 -12 0
-171 170 0
-171 14 0
171 -170 -14 0
172 -168 0
172 -171 0
-172 168 171 0
-173 105 0
-173 110 0
173 -105 -110 0
-174 173 0
-174 12 0
174 -173 -12 0
-175 174 0
-175 14 0
175 -174 -14 0
176 -172 0
176 -175 0
-176 172 175 0
177 12 0
-177 -12 0
-178 30 0
-178 177 0
178 -30 -177 0
-179 178 0
-179 14 0
179 -178 -14 0
180 -176 0
180 -179 0
-180 176 179 0
-181 121 0
-181 10 0
181 -121 -10 0
-182 181 0
-182 177 0
182 -181 -177 0
-183 182 0
-183 14 0
183 -182 -14 0
184 -180 0
184 -183 0
-184 180 183 0
-185 138 0
-185 10 0
185 -138 -10 0
-186 185 0
-186 177 0
186 -185 -177 0
-187 186 0
-187 14 0
187 -186 -14 0
188 -184 0
188 -187 0
-188 184 187 0
-189 60 0
-189 177 0
189 -60 -177 0
-190 189 0
-190 14 0
190 -189 -14 0
191 -188 0
191 -190 0
-191 188 190 0
-192 35 0
-192 57 0
192 -35 -57 0
-193 192 0
-193 8 0
193 -192 -8 0
-194 193 0
-194 10 0
194 -193 -10 0
-195 194 0
-195 177 0
195 -194 -177 0
-196 195 0
-196 14 0
196 -195 -14 0
197 -191 0
197 -196 0
-197 191 196 0
-198 93 0
-198 8 0
198 -93 -8 0
-199 198 0
-199 10 0
199 -198 -10 0
-200 199 0
-200 177 0
200 -199 -177 0
-201 200 0
-201 14 0
201 -200 -14 0
202 -197 0
202 -201 0
-202 197 201 0
-203 147 0
-203 10 0
203 -147 -10 0
-204 203 0
-204 177 0
204 -203 -177 0
-205 204 0
-205 14 0
205 -204 -14 0
206 -202 0
206 -205 0
-206 202 205 0
-207 7 0
-207 71 0
207 -7 -71 0
-208 207 0
-208 10 0
208 -207 -10 0
-209 208 0
-209 177 0
209 -208 -177 0
-210 209 0
-210 14 0
210 -209 -14 0
211 -206 0
211 -210 0
-211 206 210 0
-212 156 0
-212 10 0
212 -156 -10 0
-213 212 0
-213 177 0
213 -212 -177 0
-214 213 0
-214 14 0
214 -213 -14 0
215 -211 0
215 -214 0
-215 211 214 0
-216 78 0
-216 177 0
216 -78 -177 0
-217 216 0
-217 14 0
217 -216 -14 0
218 -215 0
218 -217 0
-218 215 217 0
-219 120 0
-219 71 0
219 -120 -71 0
-220 219 0
-220 10 0
220 -219 -10 0
-221 220 0
-221 177 0
221 -220 -177 0
-222 221 0
-222 14 0
222 -221 -14 0
223 -218 0
223 -222 0
-223 218 222 0
-224 44 0
-224 71 0
224 -44 -71 0
-225 224 0
-225 10 0
225 -224 -10 0
-226 225 0
-226 177 0
226 -225 -177 0
-227 226 0
-227 14 0
227 -226 -14 0
228 -223 0
228 -227 0
-228 223 227 0
-229 83 0
-229 177 0
229 -83 -177 0
-230 229 0
-230 14 0
230 -229 -14 0
231 -228 0
231 -230 0
-231 228 230 0
-232 89 0
-232 177 0
232 -89 -177 0
-233 232 0
-233 14 0
233 -232 -14 0
234 -231 0
234 -233 0
-234 231 233 0
-235 95 0
-235 177 0
235 -95 -177 0
-236 235 0
-236 14 0
236 -235 -14 0
237 -234 0
237 -236 0
-237 234 236 0
-238 100 0
-238 177 0
238 -100 -177 0
-239 238 0
-239 14 0
239 -238 -14 0
240 -237 0
240 -239 0
-240 237 239 0
-241 106 0
-241 177 0
241 -106 -177 0
-242 241 0
-242 14 0
242 -241 -14 0
243 -240 0
243 -242 0
-243 240 242 0
-244 45 0
-244 110 0
244 -45 -110 0
-245 244 0
-245 177 0
245 -244 -177 0
-246 245 0
-246 14 0
246 -245 -14 0
247 -243 0
247 -246 0
-247 243 246 0
-248 128 0
-248 177 0
248 -128 -177 0
-249 248 0
-249 14 0
249 -248 -14 0
250 -247 0
250 -249 0
-250 247 249 0
-251 52 0
-251 110 0
251 -52 -110 0
-252 251 0
-252 177 0
252 -251 -177 0
-253 252 0
-253 14 0
253 -252 -14 0
254 -250 0
254 -253 0
-254 250 253 0
-255 139 0
-255 177 0
255 -139 -177 0
-256 255 0
-256 14 0
256 -255 -14 0
257 -254 0
257 -256 0
-257 254 256 0
-258 143 0
-258 177 0
258 -143 -177 0
-259 258 0
-259 14 0
259 -258 -14 0
260 -257 0
260 -259 0
-260 257 259 0
-261 198 0
-261 110 0
261 -198 -110 0
-262 261 0
-262 177 0
262 -261 -177 0
-263 262 0
-263 14 0
263 -262 -14 0
264 -260 0
264 -263 0
-264 260 263 0
-265 66 0
-265 110 0
265 -66 -110 0
-266 265 0
-266 177 0
266 -265 -177 0
-267 266 0
-267 14 0
267 -266 -14 0
268 -264 0
268 -267 0
-268 264 267 0
-269 219 0
-269 110 0
269 -219 -110 0
-270 269 0
-270 177 0
270 -269 -177 0
-271 270 0
-271 14 0
271 -270 -14 0
272 -268 0
272 -271 0
-272 268 271 0
-273 165 0
-273 177 0
273 -165 -177 0
-274 273 0
-274 14 0
274 -273 -14 0
275 -272 0
275 -274 0
-275 272 274 0
-276 137 0
-276 71 0
276 -137 -71 0
-277 276 0
-277 110 0
277 -276 -110 0
-278 277 0
-278 177 0
278 -277 -177 0
-279 278 0
-279 14 0
279 -278 -14 0
280 -275 0
280 -279 0
-280 275 279 0
-281 119 0
-281 57 0
281 -119 -57 0
-282 281 0
-282 71 0
282 -281 -71 0
-283 282 0
-283 110 0
283 -282 -110 0
-284 283 0
-284 177 0
284 -283 -177 0
-285 284 0
-285 14 0
285 -284 -14 0
286 -280 0
286 -285 0
-286 280 285 0
-287 169 0
-287 177 0
287 -169 -177 0
-288 287 0
-288 14 0
288 -287 -14 0
289 -286 0
289 -288 0
-289 286 288 0
-290 173 0
-290 177 0
290 -173 -177 0
-291 290 0
-291 14 0
291 -290 -14 0
292 -289 0
292 -291 0
-292 289 291 0
293 14 0
-293 -14 0
-294 22 0
-294 293 0
294 -22 -293 0
295 -292 0
295 -294 0
-295 292 294 0
-296 31 0
-296 293 0
296 -31 -293 0
297 -295 0
297 -296 0
-297 295 296 0
-298 47 0
-298 293 0
298 -47 -293 0
299 -297 0
299 -298 0
-299 297 298 0
-300 54 0
-300 293 0
300 -54 -293 0
301 -299 0
301 -300 0
-301 299 300 0
-302 185 0
-302 12 0
302 -185 -12 0
-303 302 0
-303 293 0
303 -302 -293 0
304 -301 0
304 -303 0
-304 301 303 0
-305 199 0
-305 12 0
305 -199 -12 0
-306 305 0
-306 293 0
306 -305 -293 0
307 -304 0
307 -306 0
-307 304 306 0
-308 68 0
-308 293 0
308 -68 -293 0
309 -307 0
309 -308 0
-309 307 308 0
-310 208 0
-310 12 0
310 -208 -12 0
-311 310 0
-311 293 0
311 -310 -293 0
312 -309 0
312 -311 0
-312 309 311 0
-313 74 0
-313 293 0
313 -74 -293 0
314 -312 0
314 -313 0
-314 312 313 0
-315 225 0
-315 12 0
315 -225 -12 0
-316 315 0
-316 293 0
316 -315 -293 0
317 -314 0
317 -316 0
-317 314 316 0
-318 84 0
-318 293 0
318 -84 -293 0
319 -317 0
319 -318 0
-319 317 318 0
-320 282 0
-320 10 0
320 -282 -10 0
-321 320 0
-321 12 0
321 -320 -12 0
-322 321 0
-322 293 0
322 -321 -293 0
323 -319 0
323 -322 0
-323 319 322 0
-324 96 0
-324 293 0
324 -96 -293 0
325 -323 0
325 -324 0
-325 323 324 0
-326 101 0
-326 293 0
326 -101 -293 0
327 -325 0
327 -326 0
-327 325 326 0
-328 20 0
-328 110 0
328 -20 -110 0
-329 328 0
-329 12 0
329 -328 -12 0
-330 329 0
-330 293 0
330 -329 -293 0
331 -327 0
331 -330 0
-331 327 330 0
-332 123 0
-332 293 0
332 -123 -293 0
333 -331 0
333 -332 0
-333 331 332 0
-334 244 0
-334 12 0
334 -244 -12 0
-335 334 0
-335 293 0
335 -334 -293 0
336 -333 0
336 -335 0
-336 333 335 0
-337 144 0
-337 293 0
337 -144 -293 0
338 -336 0
338 -337 0
-338 336 337 0
-339 149 0
-339 293 0
339 -149 -293 0
340 -338 0
340 -339 0
-340 338 339 0
-341 158 0
-341 293 0
341 -158 -293 0
342 -340 0
342 -341 0
-342 340 341 0
-343 77 0
-343 110 0
343 -77 -110 0
-344 343 0
-344 12 0
344 -343 -12 0
-345 344 0
-345 293 0
345 -344 -293 0
346 -342 0
346 -345 0
-346 342 345 0
-347 269 0
-347 12 0
347 -269 -12 0
-348 347 0
-348 293 0
348 -347 -293 0
349 -346 0
349 -348 0
-349 346 348 0
-350 224 0
-350 110 0
350 -224 -110 0
-351 350 0
-351 12 0
351 -350 -12 0
-352 351 0
-352 293 0
352 -351 -293 0
353 -349 0
353 -352 0
-353 349 352 0
-354 126 0
-354 71 0
354 -126 -71 0
-355 354 0
-355 110 0
355 -354 -110 0
-356 355 0
-356 12 0
356 -355 -12 0
-357 356 0
-357 293 0
357 -356 -293 0
358 -353 0
358 -357 0
-358 353 357 0
-359 162 0
-359 293 0
359 -162 -293 0
360 -358 0
360 -359 0
-360 358 359 0
-361 166 0
-361 293 0
361 -166 -293 0
362 -360 0
362 -361 0
-362 360 361 0
-363 277 0
-363 12 0
363 -277 -12 0
-364 363 0
-364 293 0
364 -363 -293 0
365 -362 0
365 -364 0
-365 362 364 0
-366 94 0
-366 110 0
366 -94 -110 0
-367 366 0
-367 12 0
367 -366 -12 0
-368 367 0
-368 293 0
368 -367 -293 0
369 -365 0
369 -368 0
-369 365 368 0
-370 174 0
-370 293 0
370 -174 -293 0
371 -369 0
371 -370 0
-371 369 370 0
-372 178 0
-372 293 0
372 -178 -293 0
373 -371 0
373 -372 0
-373 371 372 0
-374 38 0
-374 177 0
374 -38 -177 0
-375 374 0
-375 293 0
375 -374 -293 0
376 -373 0
376 -375 0
-376 373 375 0
-377 127 0
-377 10 0
377 -127 -10 0
-378 377 0
-378 177 0
378 -377 -177 0
-379 378 0
-379 293 0
379 -378 -293 0
380 -376 0
380 -379 0
-380 376 379 0
-381 53 0
-381 177 0
381 -53 -177 0
-382 381 0
-382 293 0
382 -381 -293 0
383 -380 0
383 -382 0
-383 380 382 0
-384 132 0
-384 10 0
384 -132 -10 0
-385 384 0
-385 177 0
385 -384 -177 0
-386 385 0
-386 293 0
386 -385 -293 0
387 -383 0
387 -386 0
-387 383 386 0
-388 186 0
-388 293 0
388 -186 -293 0
389 -387 0
389 -388 0
-389 387 388 0
-390 189 0
-390 293 0
390 -189 -293 0
391 -389 0
391 -390 0
-391 389 390 0
-392 200 0
-392 293 0
392 -200 -293 0
393 -391 0
393 -392 0
-393 391 392 0
-394 213 0
-394 293 0
394 -213 -293 0
395 -393 0
395 -394 0
-395 393 394 0
-396 221 0
-396 293 0
396 -221 -293 0
397 -395 0
397 -396 0
-397 395 396 0
-398 354 0
-398 10 0
398 -354 -10 0
-399 398 0
-399 177 0
399 -398 -177 0
-400 399 0
-400 293 0
400 -399 -293 0
401 -397 0
401 -400 0
-401 397 400 0
-402 232 0
-402 293 0
402 -232 -293 0
403 -401 0
403 -402 0
-403 401 402 0
-404 276 0
-404 10 0
404 -276 -10 0
-405 404 0
-405 177 0
405 -404 -177 0
-406 405 0
-406 293 0
406 -405 -293 0
407 -403 0
407 -406 0
-407 403 406 0
-408 58 0
-408 71 0
408 -58 -71 0
-409 408 0
-409 10 0
409 -408 -10 0
-410 409 0
-410 177 0
410 -409 -177 0
-411 410 0
-411 293 0
411 -410 -293 0
412 -407 0
412 -411 0
-412 407 411 0
-413 192 0
-413 71 0
413 -192 -71 0
-414 413 0
-414 10 0
414 -413 -10 0
-415 414 0
-415 177 0
415 -414 -177 0
-416 415 0
-416 293 0
416 -415 -293 0
417 -412 0
417 -416 0
-417 412 416 0
-418 320 0
-418 177 0
418 -320 -177 0
-419 418 0
-419 293 0
419 -418 -293 0
420 -417 0
420 -419 0
-420 417 419 0
-421 238 0
-421 293 0
421 -238 -293 0
422 -420 0
422 -421 0
-422 420 421 0
-423 241 0
-423 293 0
423 -241 -293 0
424 -422 0
424 -423 0
-424 422 423 0
-425 9 0
-425 110 0
425 -9 -110 0
-426 425 0
-426 177 0
426 -425 -177 0
-427 426 0
-427 293 0
427 -426 -293 0
428 -424 0
428 -427 0
-428 424 427 0
-429 122 0
-429 177 0
429 -122 -177 0
-430 429 0
-430 293 0
430 -429 -293 0
431 -428 0
431 -430 0
-431 428 430 0
-432 248 0
-432 293 0
432 -248 -293 0
433 -431 0
433 -432 0
-433 431 432 0
-434 252 0
-434 293 0
434 -252 -293 0
435 -433 0
435 -434 0
-435 433 434 0
-436 133 0
-436 177 0
436 -133 -177 0
-437 436 0
-437 293 0
437 -436 -293 0
438 -435 0
438 -437 0
-438 435 437 0
-439 255 0
-439 293 0
439 -255 -293 0
440 -438 0
440 -439 0
-440 438 439 0
-441 258 0
-441 293 0
441 -258 -293 0
442 -440 0
442 -441 0
-442 440 441 0
-443 193 0
-443 110 0
443 -193 -110 0
-444 443 0
-444 177 0
444 -443 -177 0
-445 444 0
-445 293 0
445 -444 -293 0
446 -442 0
446 -445 0
-446 442 445 0
-447 157 0
-447 177 0
447 -157 -177 0
-448 447 0
-448 293 0
448 -447 -293 0
449 -446 0
449 -448 0
-449 446 448 0
-450 343 0
-450 177 0
450 -343 -177 0
-451 450 0
-451 293 0
451 -450 -293 0
452 -449 0
452 -451 0
-452 449 451 0
-453 273 0
-453 293 0
453 -273 -293 0
454 -452 0
454 -453 0
-454 452 453 0
-455 408 0
-455 110 0
455 -408 -110 0
-456 455 0
-456 177 0
456 -455 -177 0
-457 456 0
-457 293 0
457 -456 -293 0
458 -454 0
458 -457 0
-458 454 457 0
-459 284 0
-459 293 0
459 -284 -293 0
460 -458 0
460 -459 0
-460 458 459 0
-461 366 0
-461 177 0
461 -366 -177 0
-462 461 0
-462 293 0
462 -461 -293 0
463 -460 0
463 -462 0
-463 460 462 0
-464 287 0
-464 293 0
464 -287 -293 0
465 -463 0
465 -464 0
-465 463 464 0
-466 290 0
-466 293 0
466 -290 -293 0
467 -465 0
467 -466 0
-467 465 466 0
468 -8 10 0
468 8 -10 0
-468 -8 -10 0
-468 8 10 0
469 -468 12 0
469 468 -12 0
-469 -468 -12 0
-469 468 12 0
470 -469 14 0
470 469 -14 0
-470 -469 -14 0
-470 469 14 0
471 -467 -470 0
471 467 470 0
-471 -467 470 0
-471 467 -470 0
471 0
